10
0 9023 4726 5419 6353 9990 2074 8875 3042 9384 
1473 0 8076 688 3483 6815 2299 8411 5692 6470 
2102 272 0 8874 0 889 620 4178 5865 5023 
4833 5284 7682 0 6464 6999 1832 7809 4396 2311 
6206 1556 5901 7370 0 1724 8898 356 7471 9935 
5127 2558 8517 8516 7029 0 87 7382 7674 6754 
5037 5708 3141 7960 6846 9534 0 6879 7557 3799 
6584 1352 1811 7249 6911 9639 6423 0 3996 3464 
307 5186 7274 9046 4594 5075 6446 64 0 6363 
4100 7234 6042 8922 484 5842 500 8085 3511 0 
